1619111
46,2,94,81,59,84,51,32,85,61,43,95,6,30,103,56,13,76,96,88,18,55,33,106,71,54,104,22,64,10,109,52,34,45,5,1,35,98,101,82,90,24,23,15,53,102,58,100,99,73,65,12,36,28,68,40,62,87,108,19,50,7,14,70,69,27,86,72,38,41,66,77,9,37,26,75,57,31,39,8,42,78,60,47,49,89,11,91,97,93,105,21,17,80,48,74,92,4,67,79,44,20,63,3,83,25,29,16,107